NAME          
ROWS
 N  OBJ
 L  c1
COLUMNS
    MARKER    'MARKER'                 'INTORG'
    x[1]      c1        395
    x[1]      OBJ       -297
    x[2]      c1        46
    x[2]      OBJ       -31
    x[3]      c1        257
    x[3]      OBJ       -268
    x[4]      c1        772
    x[4]      OBJ       -827
    x[5]      c1        842
    x[5]      OBJ       -938
    x[6]      c1        633
    x[6]      OBJ       -637
    x[7]      c1        733
    x[7]      OBJ       -633
    x[8]      c1        994
    x[8]      OBJ       -936
    x[9]      c1        84
    x[9]      OBJ       -60
    x[10]     c1        249
    x[10]     OBJ       -310
    x[11]     c1        741
    x[11]     OBJ       -645
    x[12]     c1        868
    x[12]     OBJ       -944
    x[13]     c1        440
    x[13]     OBJ       -516
    x[14]     c1        12
    x[14]     OBJ       -84
    x[15]     c1        867
    x[15]     OBJ       -929
    x[16]     c1        845
    x[16]     OBJ       -828
    x[17]     c1        45
    x[17]     OBJ       -129
    x[18]     c1        484
    x[18]     OBJ       -509
    x[19]     c1        742
    x[19]     OBJ       -705
    x[20]     c1        210
    x[20]     OBJ       -122
    x[21]     c1        621
    x[21]     OBJ       -548
    x[22]     c1        741
    x[22]     OBJ       -711
    x[23]     c1        142
    x[23]     OBJ       -109
    x[24]     c1        192
    x[24]     OBJ       -114
    x[25]     c1        850
    x[25]     OBJ       -812
    x[26]     c1        621
    x[26]     OBJ       -670
    x[27]     c1        224
    x[27]     OBJ       -140
    x[28]     c1        425
    x[28]     OBJ       -361
    x[29]     c1        210
    x[29]     OBJ       -140
    x[30]     c1        432
    x[30]     OBJ       -505
    x[31]     c1        172
    x[31]     OBJ       -104
    x[32]     c1        630
    x[32]     OBJ       -652
    x[33]     c1        907
    x[33]     OBJ       -891
    x[34]     c1        920
    x[34]     OBJ       -847
    x[35]     c1        939
    x[35]     OBJ       -959
    x[36]     c1        159
    x[36]     OBJ       -213
    x[37]     c1        775
    x[37]     OBJ       -704
    x[38]     c1        77
    x[38]     OBJ       -48
    x[39]     c1        399
    x[39]     OBJ       -312
    x[40]     c1        383
    x[40]     OBJ       -291
    x[41]     c1        446
    x[41]     OBJ       -506
    x[42]     c1        577
    x[42]     OBJ       -512
    x[43]     c1        558
    x[43]     OBJ       -613
    x[44]     c1        130
    x[44]     OBJ       -79
    x[45]     c1        593
    x[45]     OBJ       -632
    x[46]     c1        578
    x[46]     OBJ       -580
    x[47]     c1        868
    x[47]     OBJ       -935
    x[48]     c1        510
    x[48]     OBJ       -550
    x[49]     c1        642
    x[49]     OBJ       -702
    x[50]     c1        967
    x[50]     OBJ       -872
    x[51]     c1        949
    x[51]     OBJ       -888
    x[52]     c1        338
    x[52]     OBJ       -335
    x[53]     c1        444
    x[53]     OBJ       -347
    x[54]     c1        551
    x[54]     OBJ       -638
    x[55]     c1        908
    x[55]     OBJ       -872
    x[56]     c1        643
    x[56]     OBJ       -708
    x[57]     c1        294
    x[57]     OBJ       -265
    x[58]     c1        598
    x[58]     OBJ       -602
    x[59]     c1        233
    x[59]     OBJ       -175
    x[60]     c1        660
    x[60]     OBJ       -688
    x[61]     c1        448
    x[61]     OBJ       -407
    x[62]     c1        93
    x[62]     OBJ       -5
    x[63]     c1        899
    x[63]     OBJ       -848
    x[64]     c1        772
    x[64]     OBJ       -870
    x[65]     c1        563
    x[65]     OBJ       -583
    x[66]     c1        474
    x[66]     OBJ       -540
    x[67]     c1        735
    x[67]     OBJ       -759
    x[68]     c1        372
    x[68]     OBJ       -274
    x[69]     c1        -9
    x[69]     OBJ       -52
    x[70]     c1        175
    x[70]     OBJ       -214
    x[71]     c1        702
    x[71]     OBJ       -659
    x[72]     c1        725
    x[72]     OBJ       -748
    x[73]     c1        525
    x[73]     OBJ       -476
    x[74]     c1        347
    x[74]     OBJ       -271
    x[75]     c1        409
    x[75]     OBJ       -491
RHS
    rhs       c1        19398
RANGES
BOUNDS
 LO bounds    x[1]      0
 PL bounds    x[1]
 LO bounds    x[2]      0
 PL bounds    x[2]
 LO bounds    x[3]      0
 PL bounds    x[3]
 LO bounds    x[4]      0
 PL bounds    x[4]
 LO bounds    x[5]      0
 PL bounds    x[5]
 LO bounds    x[6]      0
 PL bounds    x[6]
 LO bounds    x[7]      0
 PL bounds    x[7]
 LO bounds    x[8]      0
 PL bounds    x[8]
 LO bounds    x[9]      0
 PL bounds    x[9]
 LO bounds    x[10]     0
 PL bounds    x[10]
 LO bounds    x[11]     0
 PL bounds    x[11]
 LO bounds    x[12]     0
 PL bounds    x[12]
 LO bounds    x[13]     0
 PL bounds    x[13]
 LO bounds    x[14]     0
 PL bounds    x[14]
 LO bounds    x[15]     0
 PL bounds    x[15]
 LO bounds    x[16]     0
 PL bounds    x[16]
 LO bounds    x[17]     0
 PL bounds    x[17]
 LO bounds    x[18]     0
 PL bounds    x[18]
 LO bounds    x[19]     0
 PL bounds    x[19]
 LO bounds    x[20]     0
 PL bounds    x[20]
 LO bounds    x[21]     0
 PL bounds    x[21]
 LO bounds    x[22]     0
 PL bounds    x[22]
 LO bounds    x[23]     0
 PL bounds    x[23]
 LO bounds    x[24]     0
 PL bounds    x[24]
 LO bounds    x[25]     0
 PL bounds    x[25]
 LO bounds    x[26]     0
 PL bounds    x[26]
 LO bounds    x[27]     0
 PL bounds    x[27]
 LO bounds    x[28]     0
 PL bounds    x[28]
 LO bounds    x[29]     0
 PL bounds    x[29]
 LO bounds    x[30]     0
 PL bounds    x[30]
 LO bounds    x[31]     0
 PL bounds    x[31]
 LO bounds    x[32]     0
 PL bounds    x[32]
 LO bounds    x[33]     0
 PL bounds    x[33]
 LO bounds    x[34]     0
 PL bounds    x[34]
 LO bounds    x[35]     0
 PL bounds    x[35]
 LO bounds    x[36]     0
 PL bounds    x[36]
 LO bounds    x[37]     0
 PL bounds    x[37]
 LO bounds    x[38]     0
 PL bounds    x[38]
 LO bounds    x[39]     0
 PL bounds    x[39]
 LO bounds    x[40]     0
 PL bounds    x[40]
 LO bounds    x[41]     0
 PL bounds    x[41]
 LO bounds    x[42]     0
 PL bounds    x[42]
 LO bounds    x[43]     0
 PL bounds    x[43]
 LO bounds    x[44]     0
 PL bounds    x[44]
 LO bounds    x[45]     0
 PL bounds    x[45]
 LO bounds    x[46]     0
 PL bounds    x[46]
 LO bounds    x[47]     0
 PL bounds    x[47]
 LO bounds    x[48]     0
 PL bounds    x[48]
 LO bounds    x[49]     0
 PL bounds    x[49]
 LO bounds    x[50]     0
 PL bounds    x[50]
 LO bounds    x[51]     0
 PL bounds    x[51]
 LO bounds    x[52]     0
 PL bounds    x[52]
 LO bounds    x[53]     0
 PL bounds    x[53]
 LO bounds    x[54]     0
 PL bounds    x[54]
 LO bounds    x[55]     0
 PL bounds    x[55]
 LO bounds    x[56]     0
 PL bounds    x[56]
 LO bounds    x[57]     0
 PL bounds    x[57]
 LO bounds    x[58]     0
 PL bounds    x[58]
 LO bounds    x[59]     0
 PL bounds    x[59]
 LO bounds    x[60]     0
 PL bounds    x[60]
 LO bounds    x[61]     0
 PL bounds    x[61]
 LO bounds    x[62]     0
 PL bounds    x[62]
 LO bounds    x[63]     0
 PL bounds    x[63]
 LO bounds    x[64]     0
 PL bounds    x[64]
 LO bounds    x[65]     0
 PL bounds    x[65]
 LO bounds    x[66]     0
 PL bounds    x[66]
 LO bounds    x[67]     0
 PL bounds    x[67]
 LO bounds    x[68]     0
 PL bounds    x[68]
 LO bounds    x[69]     0
 PL bounds    x[69]
 LO bounds    x[70]     0
 PL bounds    x[70]
 LO bounds    x[71]     0
 PL bounds    x[71]
 LO bounds    x[72]     0
 PL bounds    x[72]
 LO bounds    x[73]     0
 PL bounds    x[73]
 LO bounds    x[74]     0
 PL bounds    x[74]
 LO bounds    x[75]     0
 PL bounds    x[75]
ENDATA
